WARNING: for repeatability, setting FPU to use double precision
============================[ Problem Statistics ]=============================
|                                                                             |
|  Number of variables:        289152                                         |
|  Number of clauses:          830928                                         |
|  Parse time:                   0.19 s                                       |
|                                                                             |
c ============================[ Search Statistics ]==============================
c | Conflicts |          ORIGINAL         |          LEARNT          | Progress |
c |           |    Vars  Clauses Literals |    Limit  Clauses Lit/Cl |          |
c ===============================================================================
We had 723 decisions of which only 0 were on extended
We had 288314 decisions of which only 0 were on extended
c Switched to VSIDS.
c Switched to LRB.
We had 533386 decisions of which only 0 were on extended
c Switched to VSIDS.
We had 754454 decisions of which only 0 were on extended
We had 1044608 decisions of which only 0 were on extended
c Switched to LRB.
We had 1215728 decisions of which only 0 were on extended
c Switched to VSIDS.
c Switched to LRB.
c Switched to VSIDS.
We had 1470905 decisions of which only 0 were on extended
c Switched to LRB.
c Switched to VSIDS.
We had 1779262 decisions of which only 0 were on extended
c Switched to LRB.
We had 1903457 decisions of which only 0 were on extended
c Switched to VSIDS.
We had 1978246 decisions of which only 0 were on extended
c Switched to LRB.
We had 2141167 decisions of which only 0 were on extended
c Switched to VSIDS.
We had 2297515 decisions of which only 0 were on extended
c Switched to LRB.
We had 2514226 decisions of which only 0 were on extended
We had 2629147 decisions of which only 0 were on extended
c Switched to VSIDS.
We had 2736534 decisions of which only 0.00105973 were on extended
c Switched to LRB.
We had 2862997 decisions of which only 0.00125742 were on extended
We had 2900461 decisions of which only 0.00134461 were on extended
We had 2932496 decisions of which only 0.00364877 were on extended
c Switched to VSIDS.
We had 3092298 decisions of which only 0.00352489 were on extended
c Switched to LRB.
Window full
Continue
We had 3228788 decisions of which only 0.00371656 were on extended
We had 3306804 decisions of which only 0.00405225 were on extended
We had 3350082 decisions of which only 0.00552225 were on extended
c Switched to VSIDS.
We had 3474953 decisions of which only 0.00684901 were on extended
We had 3588404 decisions of which only 0.00718983 were on extended
c Switched to LRB.
We had 3660475 decisions of which only 0.00786783 were on extended
We had 3705518 decisions of which only 0.010147 were on extended
We had 3760066 decisions of which only 0.0130051 were on extended
We had 3814502 decisions of which only 0.0165421 were on extended
c Switched to VSIDS.
We had 3928584 decisions of which only 0.0175381 were on extended
Window full
Continue
We had 4026546 decisions of which only 0.0198681 were on extended
c Switched to LRB.
We had 4158001 decisions of which only 0.0217653 were on extended
We had 4204055 decisions of which only 0.0243099 were on extended
We had 4230035 decisions of which only 0.0268556 were on extended
We had 4261045 decisions of which only 0.031565 were on extended
We had 4288170 decisions of which only 0.0356096 were on extended
We had 4314365 decisions of which only 0.0377576 were on extended
c Switched to VSIDS.
We had 4379600 decisions of which only 0.0441821 were on extended
We had 4505726 decisions of which only 0.0445655 were on extended
We had 4616970 decisions of which only 0.107343 were on extended
Window full
Continue
We had 4704116 decisions of which only 0.145787 were on extended
c Switched to LRB.
We had 4824633 decisions of which only 0.151162 were on extended
We had 4887925 decisions of which only 0.156242 were on extended
We had 4934879 decisions of which only 0.164421 were on extended
We had 4970547 decisions of which only 0.171671 were on extended
c Switched to VSIDS.
We had 5008877 decisions of which only 0.175868 were on extended
We had 5117792 decisions of which only 0.180312 were on extended
We had 5198679 decisions of which only 0.195761 were on extended
We had 5281610 decisions of which only 0.240419 were on extended
We had 5405964 decisions of which only 0.385944 were on extended
c Switched to LRB.
Window full
Continue
We had 5495233 decisions of which only 0.390266 were on extended
CAREFUL: the definition is falsified in conflict 495432 at DL 26 (has happened 1 times)
We had 5536199 decisions of which only 0.396843 were on extended
We had 5571329 decisions of which only 0.40064 were on extended
We had 5607187 decisions of which only 0.403161 were on extended
We had 5646414 decisions of which only 0.406913 were on extended
We had 5683380 decisions of which only 0.417093 were on extended
c Switched to VSIDS.
We had 5742317 decisions of which only 0.423662 were on extended
We had 5859137 decisions of which only 0.531938 were on extended
We had 5991039 decisions of which only 0.541208 were on extended
We had 6098907 decisions of which only 0.574496 were on extended
Window full
Continue
We had 6197887 decisions of which only 0.623761 were on extended
c Switched to LRB.
We had 6282932 decisions of which only 0.675974 were on extended
We had 6308042 decisions of which only 0.674678 were on extended
We had 6329757 decisions of which only 0.675002 were on extended
We had 6352905 decisions of which only 0.675974 were on extended
We had 6372165 decisions of which only 0.676348 were on extended
c Switched to VSIDS.
We had 6409220 decisions of which only 0.680379 were on extended
We had 6568594 decisions of which only 0.760163 were on extended
We had 6622070 decisions of which only 0.808886 were on extended
We had 6823826 decisions of which only 0.811656 were on extended
Window full
Continue
We had 6884332 decisions of which only 0.878226 were on extended
c Switched to LRB.
We had 7001995 decisions of which only 0.990818 were on extended
We had 7052226 decisions of which only 0.994778 were on extended
We had 7100127 decisions of which only 0.99763 were on extended
We had 7128157 decisions of which only 0.998912 were on extended
We had 7173957 decisions of which only 1.00115 were on extended
We had 7216107 decisions of which only 1.0046 were on extended
We had 7254146 decisions of which only 1.00822 were on extended
We had 7283103 decisions of which only 1.0094 were on extended
We had 7308457 decisions of which only 1.00988 were on extended
Window full
Continue
We had 7331776 decisions of which only 1.00958 were on extended
We had 7363037 decisions of which only 1.00923 were on extended
We had 7401739 decisions of which only 1.01072 were on extended
We had 7432441 decisions of which only 1.01298 were on extended
c Switched to VSIDS.
We had 7501071 decisions of which only 1.04184 were on extended
We had 7616226 decisions of which only 1.05862 were on extended
We had 7765805 decisions of which only 1.09287 were on extended
We had 7845136 decisions of which only 1.23336 were on extended
We had 7877661 decisions of which only 1.2882 were on extended
We had 7978350 decisions of which only 1.49639 were on extended
Window full
Continue
We had 8148999 decisions of which only 1.51339 were on extended
c Switched to LRB.
We had 8236889 decisions of which only 1.53071 were on extended
We had 8281144 decisions of which only 1.52925 were on extended
We had 8320861 decisions of which only 1.52632 were on extended
We had 8365625 decisions of which only 1.52675 were on extended
We had 8424649 decisions of which only 1.53015 were on extended
We had 8485166 decisions of which only 1.52919 were on extended
We had 8521733 decisions of which only 1.53001 were on extended
We had 8593895 decisions of which only 1.53447 were on extended
We had 8633772 decisions of which only 1.53371 were on extended
Window full
Continue
We had 8678577 decisions of which only 1.53359 were on extended
c Switched to VSIDS.
We had 8741347 decisions of which only 1.54624 were on extended
We had 8842474 decisions of which only 1.63406 were on extended
We had 8957031 decisions of which only 1.73574 were on extended
We had 9042668 decisions of which only 1.84608 were on extended
We had 9129172 decisions of which only 1.88053 were on extended
We had 9214518 decisions of which only 1.95189 were on extended
We had 9294726 decisions of which only 1.98179 were on extended
We had 9479935 decisions of which only 1.97069 were on extended
c Switched to LRB.
We had 9547742 decisions of which only 1.98336 were on extended
Window full
Continue
We had 9591571 decisions of which only 1.97907 were on extended
We had 9662253 decisions of which only 1.9733 were on extended
We had 9730325 decisions of which only 1.96772 were on extended
We had 9779007 decisions of which only 1.96346 were on extended
We had 9856449 decisions of which only 1.95817 were on extended
We had 9916172 decisions of which only 1.95464 were on extended
We had 9998798 decisions of which only 1.95801 were on extended
We had 10071315 decisions of which only 1.9574 were on extended
We had 10103081 decisions of which only 1.95498 were on extended
We had 10166161 decisions of which only 1.95423 were on extended
Window full
Deactivate
We had 10199920 decisions of which only 1.9556 were on extended
We had 10248466 decisions of which only 1.9604 were on extended
c Switched to VSIDS.
We had 10331820 decisions of which only 1.99081 were on extended
We had 10424330 decisions of which only 2.11486 were on extended
We had 10495506 decisions of which only 2.17197 were on extended
We had 10630521 decisions of which only 2.19699 were on extended
We had 10689435 decisions of which only 2.2378 were on extended
We had 10768506 decisions of which only 2.25822 were on extended
We had 11021911 decisions of which only 2.2246 were on extended
We had 11170756 decisions of which only 2.36058 were on extended
c Switched to LRB.
We had 11234458 decisions of which only 2.42348 were on extended
We had 11261402 decisions of which only 2.41922 were on extended
We had 11288576 decisions of which only 2.41645 were on extended
We had 11312203 decisions of which only 2.41394 were on extended
c ===============================================================================
restarts                  : 3743
conflicts                 : 1326788        (370 /sec)
decisions                 : 11324507       (0.00 % random) (3162 /sec)
propagations              : 10004208958    (2793293 /sec)
conflict literals         : 244090728      (67.11 % deleted)

conflicts w/ DIP found    : 1016149        (76.59 % of conflicts)
conflicts w/ dangerous DIP: 27             (0.00 % of conflicts)
conflicts w/ DIP-learning : 10662          (0.80 % of conflicts)
decisions on ext vars     : 273220         (2.41 % of decisions)
total ext vars            : 1164        
tried delete ext vars     : 0           
deleted ext vars          : 0           
max ext vars              : 1164        

Memory used               : 460.00 MB
CPU time                  : 3581.51 s
DIP computation time      : 26.4321 s (0.74 % of total time)
ER_sel time               : 1.93645 s
ER_add time               : 0.0101 s
ER_delC time              : 0 s
ER_delV time              : 0 s
ER_sub time               : 3.13349 s
ER_stat time              : 0 s

INDETERMINATE
